Problem:    bringa
Rows:       24
Columns:    30 (30 integer, 30 binary)
Non-zeros:  110
Status:     INTEGER OPTIMAL
Objective:  bevetel = 1960 (MAXimum)

   No.   Row name        Activity     Lower bound   Upper bound
------ ------------    ------------- ------------- -------------
     1 max10kilo[1]                9                          10 
     2 max10kilo[2]                7                          10 
     3 max10kilo[3]                7                          10 
     4 feladat_max1szer[F1]
                                   1                           1 
     5 feladat_max1szer[F2]
                                   1                           1 
     6 feladat_max1szer[F3]
                                   1                           1 
     7 feladat_max1szer[F4]
                                   0                           1 
     8 feladat_max1szer[F5]
                                   1                           1 
     9 feladat_max1szer[F6]
                                   1                           1 
    10 feladat_max1szer[F7]
                                   0                           1 
    11 feladat_max1szer[F8]
                                   0                           1 
    12 feladat_max1szer[F9]
                                   1                           1 
    13 feladat_max1szer[F10]
                                   0                           1 
    14 elvegzes_oraban[F1]
                                   0            -0             = 
    15 elvegzes_oraban[F2]
                                   0            -0             = 
    16 elvegzes_oraban[F3]
                                   0            -0             = 
    17 elvegzes_oraban[F4]
                                   0            -0             = 
    18 elvegzes_oraban[F5]
                                   0            -0             = 
    19 elvegzes_oraban[F6]
                                   0            -0             = 
    20 elvegzes_oraban[F7]
                                   0            -0             = 
    21 elvegzes_oraban[F8]
                                   0            -0             = 
    22 elvegzes_oraban[F9]
                                   0            -0             = 
    23 elvegzes_oraban[F10]
                                   0            -0             = 
    24 bevetel                  1960                             

   No. Column name       Activity     Lower bound   Upper bound
------ ------------    ------------- ------------- -------------
     1 elvegezve[1,F1]
                    *              1             0             1 
     2 elvegezve[1,F2]
                    *              1             0             1 
     3 elvegezve[1,F3]
                    *              0             0             1 
     4 elvegezve[1,F4]
                    *              0             0             1 
     5 elvegezve[1,F5]
                    *              0             0             1 
     6 elvegezve[1,F6]
                    *              0             0             1 
     7 elvegezve[1,F7]
                    *              0             0             1 
     8 elvegezve[1,F8]
                    *              0             0             1 
     9 elvegezve[1,F9]
                    *              0             0             1 
    10 elvegezve[1,F10]
                    *              0             0             1 
    11 elvegezve[2,F1]
                    *              0             0             1 
    12 elvegezve[2,F2]
                    *              0             0             1 
    13 elvegezve[2,F3]
                    *              1             0             1 
    14 elvegezve[2,F4]
                    *              0             0             1 
    15 elvegezve[2,F5]
                    *              0             0             1 
    16 elvegezve[2,F6]
                    *              0             0             1 
    17 elvegezve[2,F7]
                    *              0             0             1 
    18 elvegezve[2,F8]
                    *              0             0             1 
    19 elvegezve[2,F9]
                    *              0             0             1 
    20 elvegezve[2,F10]
                    *              0             0             1 
    21 elvegezve[3,F1]
                    *              0             0             1 
    22 elvegezve[3,F2]
                    *              0             0             1 
    23 elvegezve[3,F3]
                    *              0             0             1 
    24 elvegezve[3,F4]
                    *              0             0             1 
    25 elvegezve[3,F5]
                    *              1             0             1 
    26 elvegezve[3,F6]
                    *              1             0             1 
    27 elvegezve[3,F7]
                    *              0             0             1 
    28 elvegezve[3,F8]
                    *              0             0             1 
    29 elvegezve[3,F9]
                    *              1             0             1 
    30 elvegezve[3,F10]
                    *              0             0             1 

Integer feasibility conditions:

KKT.PE: max.abs.err = 0.00e+00 on row 0
        max.rel.err = 0.00e+00 on row 0
        High quality

KKT.PB: max.abs.err = 0.00e+00 on row 0
        max.rel.err = 0.00e+00 on row 0
        High quality

End of output
